c *********************************
c * Circuit generated by BenCGen
c *
c * RippleCarryAdderSubtractor_55_55_55_OutSunT
c *
c * Ports with 1 gate(s): 2
c * Ports with 2 gate(s): 332
c * Total gates: 334
c *********************************
p cnf 444 1166
1 168 0
-1 -168 0
1 -167 0
168 -167 0
-1 -168 167 0
167 169 0
-167 -169 0
56 167 -170 0
-56 167 170 0
56 -167 170 0
-56 -167 -170 0
57 167 -171 0
-57 167 171 0
57 -167 171 0
-57 -167 -171 0
58 167 -172 0
-58 167 172 0
58 -167 172 0
-58 -167 -172 0
59 167 -173 0
-59 167 173 0
59 -167 173 0
-59 -167 -173 0
60 167 -174 0
-60 167 174 0
60 -167 174 0
-60 -167 -174 0
61 167 -175 0
-61 167 175 0
61 -167 175 0
-61 -167 -175 0
62 167 -176 0
-62 167 176 0
62 -167 176 0
-62 -167 -176 0
63 167 -177 0
-63 167 177 0
63 -167 177 0
-63 -167 -177 0
64 167 -178 0
-64 167 178 0
64 -167 178 0
-64 -167 -178 0
65 167 -179 0
-65 167 179 0
65 -167 179 0
-65 -167 -179 0
66 167 -180 0
-66 167 180 0
66 -167 180 0
-66 -167 -180 0
67 167 -181 0
-67 167 181 0
67 -167 181 0
-67 -167 -181 0
68 167 -182 0
-68 167 182 0
68 -167 182 0
-68 -167 -182 0
69 167 -183 0
-69 167 183 0
69 -167 183 0
-69 -167 -183 0
70 167 -184 0
-70 167 184 0
70 -167 184 0
-70 -167 -184 0
71 167 -185 0
-71 167 185 0
71 -167 185 0
-71 -167 -185 0
72 167 -186 0
-72 167 186 0
72 -167 186 0
-72 -167 -186 0
73 167 -187 0
-73 167 187 0
73 -167 187 0
-73 -167 -187 0
74 167 -188 0
-74 167 188 0
74 -167 188 0
-74 -167 -188 0
75 167 -189 0
-75 167 189 0
75 -167 189 0
-75 -167 -189 0
76 167 -190 0
-76 167 190 0
76 -167 190 0
-76 -167 -190 0
77 167 -191 0
-77 167 191 0
77 -167 191 0
-77 -167 -191 0
78 167 -192 0
-78 167 192 0
78 -167 192 0
-78 -167 -192 0
79 167 -193 0
-79 167 193 0
79 -167 193 0
-79 -167 -193 0
80 167 -194 0
-80 167 194 0
80 -167 194 0
-80 -167 -194 0
81 167 -195 0
-81 167 195 0
81 -167 195 0
-81 -167 -195 0
82 167 -196 0
-82 167 196 0
82 -167 196 0
-82 -167 -196 0
83 167 -197 0
-83 167 197 0
83 -167 197 0
-83 -167 -197 0
84 167 -198 0
-84 167 198 0
84 -167 198 0
-84 -167 -198 0
85 167 -199 0
-85 167 199 0
85 -167 199 0
-85 -167 -199 0
86 167 -200 0
-86 167 200 0
86 -167 200 0
-86 -167 -200 0
87 167 -201 0
-87 167 201 0
87 -167 201 0
-87 -167 -201 0
88 167 -202 0
-88 167 202 0
88 -167 202 0
-88 -167 -202 0
89 167 -203 0
-89 167 203 0
89 -167 203 0
-89 -167 -203 0
90 167 -204 0
-90 167 204 0
90 -167 204 0
-90 -167 -204 0
91 167 -205 0
-91 167 205 0
91 -167 205 0
-91 -167 -205 0
92 167 -206 0
-92 167 206 0
92 -167 206 0
-92 -167 -206 0
93 167 -207 0
-93 167 207 0
93 -167 207 0
-93 -167 -207 0
94 167 -208 0
-94 167 208 0
94 -167 208 0
-94 -167 -208 0
95 167 -209 0
-95 167 209 0
95 -167 209 0
-95 -167 -209 0
96 167 -210 0
-96 167 210 0
96 -167 210 0
-96 -167 -210 0
97 167 -211 0
-97 167 211 0
97 -167 211 0
-97 -167 -211 0
98 167 -212 0
-98 167 212 0
98 -167 212 0
-98 -167 -212 0
99 167 -213 0
-99 167 213 0
99 -167 213 0
-99 -167 -213 0
100 167 -214 0
-100 167 214 0
100 -167 214 0
-100 -167 -214 0
101 167 -215 0
-101 167 215 0
101 -167 215 0
-101 -167 -215 0
102 167 -216 0
-102 167 216 0
102 -167 216 0
-102 -167 -216 0
103 167 -217 0
-103 167 217 0
103 -167 217 0
-103 -167 -217 0
104 167 -218 0
-104 167 218 0
104 -167 218 0
-104 -167 -218 0
105 167 -219 0
-105 167 219 0
105 -167 219 0
-105 -167 -219 0
106 167 -220 0
-106 167 220 0
106 -167 220 0
-106 -167 -220 0
107 167 -221 0
-107 167 221 0
107 -167 221 0
-107 -167 -221 0
108 167 -222 0
-108 167 222 0
108 -167 222 0
-108 -167 -222 0
109 167 -223 0
-109 167 223 0
109 -167 223 0
-109 -167 -223 0
110 167 -224 0
-110 167 224 0
110 -167 224 0
-110 -167 -224 0
1 170 -226 0
-1 170 226 0
1 -170 226 0
-1 -170 -226 0
226 167 -111 0
-226 167 111 0
226 -167 111 0
-226 -167 -111 0
167 -227 0
226 -227 0
-167 -226 227 0
170 -228 0
1 -228 0
-170 -1 228 0
-227 225 0
-228 225 0
227 228 -225 0
2 171 -230 0
-2 171 230 0
2 -171 230 0
-2 -171 -230 0
230 225 -112 0
-230 225 112 0
230 -225 112 0
-230 -225 -112 0
225 -231 0
230 -231 0
-225 -230 231 0
171 -232 0
2 -232 0
-171 -2 232 0
-231 229 0
-232 229 0
231 232 -229 0
3 172 -234 0
-3 172 234 0
3 -172 234 0
-3 -172 -234 0
234 229 -113 0
-234 229 113 0
234 -229 113 0
-234 -229 -113 0
229 -235 0
234 -235 0
-229 -234 235 0
172 -236 0
3 -236 0
-172 -3 236 0
-235 233 0
-236 233 0
235 236 -233 0
4 173 -238 0
-4 173 238 0
4 -173 238 0
-4 -173 -238 0
238 233 -114 0
-238 233 114 0
238 -233 114 0
-238 -233 -114 0
233 -239 0
238 -239 0
-233 -238 239 0
173 -240 0
4 -240 0
-173 -4 240 0
-239 237 0
-240 237 0
239 240 -237 0
5 174 -242 0
-5 174 242 0
5 -174 242 0
-5 -174 -242 0
242 237 -115 0
-242 237 115 0
242 -237 115 0
-242 -237 -115 0
237 -243 0
242 -243 0
-237 -242 243 0
174 -244 0
5 -244 0
-174 -5 244 0
-243 241 0
-244 241 0
243 244 -241 0
6 175 -246 0
-6 175 246 0
6 -175 246 0
-6 -175 -246 0
246 241 -116 0
-246 241 116 0
246 -241 116 0
-246 -241 -116 0
241 -247 0
246 -247 0
-241 -246 247 0
175 -248 0
6 -248 0
-175 -6 248 0
-247 245 0
-248 245 0
247 248 -245 0
7 176 -250 0
-7 176 250 0
7 -176 250 0
-7 -176 -250 0
250 245 -117 0
-250 245 117 0
250 -245 117 0
-250 -245 -117 0
245 -251 0
250 -251 0
-245 -250 251 0
176 -252 0
7 -252 0
-176 -7 252 0
-251 249 0
-252 249 0
251 252 -249 0
8 177 -254 0
-8 177 254 0
8 -177 254 0
-8 -177 -254 0
254 249 -118 0
-254 249 118 0
254 -249 118 0
-254 -249 -118 0
249 -255 0
254 -255 0
-249 -254 255 0
177 -256 0
8 -256 0
-177 -8 256 0
-255 253 0
-256 253 0
255 256 -253 0
9 178 -258 0
-9 178 258 0
9 -178 258 0
-9 -178 -258 0
258 253 -119 0
-258 253 119 0
258 -253 119 0
-258 -253 -119 0
253 -259 0
258 -259 0
-253 -258 259 0
178 -260 0
9 -260 0
-178 -9 260 0
-259 257 0
-260 257 0
259 260 -257 0
10 179 -262 0
-10 179 262 0
10 -179 262 0
-10 -179 -262 0
262 257 -120 0
-262 257 120 0
262 -257 120 0
-262 -257 -120 0
257 -263 0
262 -263 0
-257 -262 263 0
179 -264 0
10 -264 0
-179 -10 264 0
-263 261 0
-264 261 0
263 264 -261 0
11 180 -266 0
-11 180 266 0
11 -180 266 0
-11 -180 -266 0
266 261 -121 0
-266 261 121 0
266 -261 121 0
-266 -261 -121 0
261 -267 0
266 -267 0
-261 -266 267 0
180 -268 0
11 -268 0
-180 -11 268 0
-267 265 0
-268 265 0
267 268 -265 0
12 181 -270 0
-12 181 270 0
12 -181 270 0
-12 -181 -270 0
270 265 -122 0
-270 265 122 0
270 -265 122 0
-270 -265 -122 0
265 -271 0
270 -271 0
-265 -270 271 0
181 -272 0
12 -272 0
-181 -12 272 0
-271 269 0
-272 269 0
271 272 -269 0
13 182 -274 0
-13 182 274 0
13 -182 274 0
-13 -182 -274 0
274 269 -123 0
-274 269 123 0
274 -269 123 0
-274 -269 -123 0
269 -275 0
274 -275 0
-269 -274 275 0
182 -276 0
13 -276 0
-182 -13 276 0
-275 273 0
-276 273 0
275 276 -273 0
14 183 -278 0
-14 183 278 0
14 -183 278 0
-14 -183 -278 0
278 273 -124 0
-278 273 124 0
278 -273 124 0
-278 -273 -124 0
273 -279 0
278 -279 0
-273 -278 279 0
183 -280 0
14 -280 0
-183 -14 280 0
-279 277 0
-280 277 0
279 280 -277 0
15 184 -282 0
-15 184 282 0
15 -184 282 0
-15 -184 -282 0
282 277 -125 0
-282 277 125 0
282 -277 125 0
-282 -277 -125 0
277 -283 0
282 -283 0
-277 -282 283 0
184 -284 0
15 -284 0
-184 -15 284 0
-283 281 0
-284 281 0
283 284 -281 0
16 185 -286 0
-16 185 286 0
16 -185 286 0
-16 -185 -286 0
286 281 -126 0
-286 281 126 0
286 -281 126 0
-286 -281 -126 0
281 -287 0
286 -287 0
-281 -286 287 0
185 -288 0
16 -288 0
-185 -16 288 0
-287 285 0
-288 285 0
287 288 -285 0
17 186 -290 0
-17 186 290 0
17 -186 290 0
-17 -186 -290 0
290 285 -127 0
-290 285 127 0
290 -285 127 0
-290 -285 -127 0
285 -291 0
290 -291 0
-285 -290 291 0
186 -292 0
17 -292 0
-186 -17 292 0
-291 289 0
-292 289 0
291 292 -289 0
18 187 -294 0
-18 187 294 0
18 -187 294 0
-18 -187 -294 0
294 289 -128 0
-294 289 128 0
294 -289 128 0
-294 -289 -128 0
289 -295 0
294 -295 0
-289 -294 295 0
187 -296 0
18 -296 0
-187 -18 296 0
-295 293 0
-296 293 0
295 296 -293 0
19 188 -298 0
-19 188 298 0
19 -188 298 0
-19 -188 -298 0
298 293 -129 0
-298 293 129 0
298 -293 129 0
-298 -293 -129 0
293 -299 0
298 -299 0
-293 -298 299 0
188 -300 0
19 -300 0
-188 -19 300 0
-299 297 0
-300 297 0
299 300 -297 0
20 189 -302 0
-20 189 302 0
20 -189 302 0
-20 -189 -302 0
302 297 -130 0
-302 297 130 0
302 -297 130 0
-302 -297 -130 0
297 -303 0
302 -303 0
-297 -302 303 0
189 -304 0
20 -304 0
-189 -20 304 0
-303 301 0
-304 301 0
303 304 -301 0
21 190 -306 0
-21 190 306 0
21 -190 306 0
-21 -190 -306 0
306 301 -131 0
-306 301 131 0
306 -301 131 0
-306 -301 -131 0
301 -307 0
306 -307 0
-301 -306 307 0
190 -308 0
21 -308 0
-190 -21 308 0
-307 305 0
-308 305 0
307 308 -305 0
22 191 -310 0
-22 191 310 0
22 -191 310 0
-22 -191 -310 0
310 305 -132 0
-310 305 132 0
310 -305 132 0
-310 -305 -132 0
305 -311 0
310 -311 0
-305 -310 311 0
191 -312 0
22 -312 0
-191 -22 312 0
-311 309 0
-312 309 0
311 312 -309 0
23 192 -314 0
-23 192 314 0
23 -192 314 0
-23 -192 -314 0
314 309 -133 0
-314 309 133 0
314 -309 133 0
-314 -309 -133 0
309 -315 0
314 -315 0
-309 -314 315 0
192 -316 0
23 -316 0
-192 -23 316 0
-315 313 0
-316 313 0
315 316 -313 0
24 193 -318 0
-24 193 318 0
24 -193 318 0
-24 -193 -318 0
318 313 -134 0
-318 313 134 0
318 -313 134 0
-318 -313 -134 0
313 -319 0
318 -319 0
-313 -318 319 0
193 -320 0
24 -320 0
-193 -24 320 0
-319 317 0
-320 317 0
319 320 -317 0
25 194 -322 0
-25 194 322 0
25 -194 322 0
-25 -194 -322 0
322 317 -135 0
-322 317 135 0
322 -317 135 0
-322 -317 -135 0
317 -323 0
322 -323 0
-317 -322 323 0
194 -324 0
25 -324 0
-194 -25 324 0
-323 321 0
-324 321 0
323 324 -321 0
26 195 -326 0
-26 195 326 0
26 -195 326 0
-26 -195 -326 0
326 321 -136 0
-326 321 136 0
326 -321 136 0
-326 -321 -136 0
321 -327 0
326 -327 0
-321 -326 327 0
195 -328 0
26 -328 0
-195 -26 328 0
-327 325 0
-328 325 0
327 328 -325 0
27 196 -330 0
-27 196 330 0
27 -196 330 0
-27 -196 -330 0
330 325 -137 0
-330 325 137 0
330 -325 137 0
-330 -325 -137 0
325 -331 0
330 -331 0
-325 -330 331 0
196 -332 0
27 -332 0
-196 -27 332 0
-331 329 0
-332 329 0
331 332 -329 0
28 197 -334 0
-28 197 334 0
28 -197 334 0
-28 -197 -334 0
334 329 -138 0
-334 329 138 0
334 -329 138 0
-334 -329 -138 0
329 -335 0
334 -335 0
-329 -334 335 0
197 -336 0
28 -336 0
-197 -28 336 0
-335 333 0
-336 333 0
335 336 -333 0
29 198 -338 0
-29 198 338 0
29 -198 338 0
-29 -198 -338 0
338 333 -139 0
-338 333 139 0
338 -333 139 0
-338 -333 -139 0
333 -339 0
338 -339 0
-333 -338 339 0
198 -340 0
29 -340 0
-198 -29 340 0
-339 337 0
-340 337 0
339 340 -337 0
30 199 -342 0
-30 199 342 0
30 -199 342 0
-30 -199 -342 0
342 337 -140 0
-342 337 140 0
342 -337 140 0
-342 -337 -140 0
337 -343 0
342 -343 0
-337 -342 343 0
199 -344 0
30 -344 0
-199 -30 344 0
-343 341 0
-344 341 0
343 344 -341 0
31 200 -346 0
-31 200 346 0
31 -200 346 0
-31 -200 -346 0
346 341 -141 0
-346 341 141 0
346 -341 141 0
-346 -341 -141 0
341 -347 0
346 -347 0
-341 -346 347 0
200 -348 0
31 -348 0
-200 -31 348 0
-347 345 0
-348 345 0
347 348 -345 0
32 201 -350 0
-32 201 350 0
32 -201 350 0
-32 -201 -350 0
350 345 -142 0
-350 345 142 0
350 -345 142 0
-350 -345 -142 0
345 -351 0
350 -351 0
-345 -350 351 0
201 -352 0
32 -352 0
-201 -32 352 0
-351 349 0
-352 349 0
351 352 -349 0
33 202 -354 0
-33 202 354 0
33 -202 354 0
-33 -202 -354 0
354 349 -143 0
-354 349 143 0
354 -349 143 0
-354 -349 -143 0
349 -355 0
354 -355 0
-349 -354 355 0
202 -356 0
33 -356 0
-202 -33 356 0
-355 353 0
-356 353 0
355 356 -353 0
34 203 -358 0
-34 203 358 0
34 -203 358 0
-34 -203 -358 0
358 353 -144 0
-358 353 144 0
358 -353 144 0
-358 -353 -144 0
353 -359 0
358 -359 0
-353 -358 359 0
203 -360 0
34 -360 0
-203 -34 360 0
-359 357 0
-360 357 0
359 360 -357 0
35 204 -362 0
-35 204 362 0
35 -204 362 0
-35 -204 -362 0
362 357 -145 0
-362 357 145 0
362 -357 145 0
-362 -357 -145 0
357 -363 0
362 -363 0
-357 -362 363 0
204 -364 0
35 -364 0
-204 -35 364 0
-363 361 0
-364 361 0
363 364 -361 0
36 205 -366 0
-36 205 366 0
36 -205 366 0
-36 -205 -366 0
366 361 -146 0
-366 361 146 0
366 -361 146 0
-366 -361 -146 0
361 -367 0
366 -367 0
-361 -366 367 0
205 -368 0
36 -368 0
-205 -36 368 0
-367 365 0
-368 365 0
367 368 -365 0
37 206 -370 0
-37 206 370 0
37 -206 370 0
-37 -206 -370 0
370 365 -147 0
-370 365 147 0
370 -365 147 0
-370 -365 -147 0
365 -371 0
370 -371 0
-365 -370 371 0
206 -372 0
37 -372 0
-206 -37 372 0
-371 369 0
-372 369 0
371 372 -369 0
38 207 -374 0
-38 207 374 0
38 -207 374 0
-38 -207 -374 0
374 369 -148 0
-374 369 148 0
374 -369 148 0
-374 -369 -148 0
369 -375 0
374 -375 0
-369 -374 375 0
207 -376 0
38 -376 0
-207 -38 376 0
-375 373 0
-376 373 0
375 376 -373 0
39 208 -378 0
-39 208 378 0
39 -208 378 0
-39 -208 -378 0
378 373 -149 0
-378 373 149 0
378 -373 149 0
-378 -373 -149 0
373 -379 0
378 -379 0
-373 -378 379 0
208 -380 0
39 -380 0
-208 -39 380 0
-379 377 0
-380 377 0
379 380 -377 0
40 209 -382 0
-40 209 382 0
40 -209 382 0
-40 -209 -382 0
382 377 -150 0
-382 377 150 0
382 -377 150 0
-382 -377 -150 0
377 -383 0
382 -383 0
-377 -382 383 0
209 -384 0
40 -384 0
-209 -40 384 0
-383 381 0
-384 381 0
383 384 -381 0
41 210 -386 0
-41 210 386 0
41 -210 386 0
-41 -210 -386 0
386 381 -151 0
-386 381 151 0
386 -381 151 0
-386 -381 -151 0
381 -387 0
386 -387 0
-381 -386 387 0
210 -388 0
41 -388 0
-210 -41 388 0
-387 385 0
-388 385 0
387 388 -385 0
42 211 -390 0
-42 211 390 0
42 -211 390 0
-42 -211 -390 0
390 385 -152 0
-390 385 152 0
390 -385 152 0
-390 -385 -152 0
385 -391 0
390 -391 0
-385 -390 391 0
211 -392 0
42 -392 0
-211 -42 392 0
-391 389 0
-392 389 0
391 392 -389 0
43 212 -394 0
-43 212 394 0
43 -212 394 0
-43 -212 -394 0
394 389 -153 0
-394 389 153 0
394 -389 153 0
-394 -389 -153 0
389 -395 0
394 -395 0
-389 -394 395 0
212 -396 0
43 -396 0
-212 -43 396 0
-395 393 0
-396 393 0
395 396 -393 0
44 213 -398 0
-44 213 398 0
44 -213 398 0
-44 -213 -398 0
398 393 -154 0
-398 393 154 0
398 -393 154 0
-398 -393 -154 0
393 -399 0
398 -399 0
-393 -398 399 0
213 -400 0
44 -400 0
-213 -44 400 0
-399 397 0
-400 397 0
399 400 -397 0
45 214 -402 0
-45 214 402 0
45 -214 402 0
-45 -214 -402 0
402 397 -155 0
-402 397 155 0
402 -397 155 0
-402 -397 -155 0
397 -403 0
402 -403 0
-397 -402 403 0
214 -404 0
45 -404 0
-214 -45 404 0
-403 401 0
-404 401 0
403 404 -401 0
46 215 -406 0
-46 215 406 0
46 -215 406 0
-46 -215 -406 0
406 401 -156 0
-406 401 156 0
406 -401 156 0
-406 -401 -156 0
401 -407 0
406 -407 0
-401 -406 407 0
215 -408 0
46 -408 0
-215 -46 408 0
-407 405 0
-408 405 0
407 408 -405 0
47 216 -410 0
-47 216 410 0
47 -216 410 0
-47 -216 -410 0
410 405 -157 0
-410 405 157 0
410 -405 157 0
-410 -405 -157 0
405 -411 0
410 -411 0
-405 -410 411 0
216 -412 0
47 -412 0
-216 -47 412 0
-411 409 0
-412 409 0
411 412 -409 0
48 217 -414 0
-48 217 414 0
48 -217 414 0
-48 -217 -414 0
414 409 -158 0
-414 409 158 0
414 -409 158 0
-414 -409 -158 0
409 -415 0
414 -415 0
-409 -414 415 0
217 -416 0
48 -416 0
-217 -48 416 0
-415 413 0
-416 413 0
415 416 -413 0
49 218 -418 0
-49 218 418 0
49 -218 418 0
-49 -218 -418 0
418 413 -159 0
-418 413 159 0
418 -413 159 0
-418 -413 -159 0
413 -419 0
418 -419 0
-413 -418 419 0
218 -420 0
49 -420 0
-218 -49 420 0
-419 417 0
-420 417 0
419 420 -417 0
50 219 -422 0
-50 219 422 0
50 -219 422 0
-50 -219 -422 0
422 417 -160 0
-422 417 160 0
422 -417 160 0
-422 -417 -160 0
417 -423 0
422 -423 0
-417 -422 423 0
219 -424 0
50 -424 0
-219 -50 424 0
-423 421 0
-424 421 0
423 424 -421 0
51 220 -426 0
-51 220 426 0
51 -220 426 0
-51 -220 -426 0
426 421 -161 0
-426 421 161 0
426 -421 161 0
-426 -421 -161 0
421 -427 0
426 -427 0
-421 -426 427 0
220 -428 0
51 -428 0
-220 -51 428 0
-427 425 0
-428 425 0
427 428 -425 0
52 221 -430 0
-52 221 430 0
52 -221 430 0
-52 -221 -430 0
430 425 -162 0
-430 425 162 0
430 -425 162 0
-430 -425 -162 0
425 -431 0
430 -431 0
-425 -430 431 0
221 -432 0
52 -432 0
-221 -52 432 0
-431 429 0
-432 429 0
431 432 -429 0
53 222 -434 0
-53 222 434 0
53 -222 434 0
-53 -222 -434 0
434 429 -163 0
-434 429 163 0
434 -429 163 0
-434 -429 -163 0
429 -435 0
434 -435 0
-429 -434 435 0
222 -436 0
53 -436 0
-222 -53 436 0
-435 433 0
-436 433 0
435 436 -433 0
54 223 -438 0
-54 223 438 0
54 -223 438 0
-54 -223 -438 0
438 433 -164 0
-438 433 164 0
438 -433 164 0
-438 -433 -164 0
433 -439 0
438 -439 0
-433 -438 439 0
223 -440 0
54 -440 0
-223 -54 440 0
-439 437 0
-440 437 0
439 440 -437 0
55 224 -442 0
-55 224 442 0
55 -224 442 0
-55 -224 -442 0
442 437 -165 0
-442 437 165 0
442 -437 165 0
-442 -437 -165 0
437 -443 0
442 -443 0
-437 -442 443 0
224 -444 0
55 -444 0
-224 -55 444 0
-443 441 0
-444 441 0
443 444 -441 0
441 167 -166 0
-441 167 166 0
441 -167 166 0
-441 -167 -166 0
